Minimize
   value: theta

Subject To

   c1:    10.000000 theta - 8.000000 lam1 - 12.000000 lam2 - 18.000000 lam3 - 3.000000 lam4 - 4.000000 lam5 - 10.000000 lam6 - 5.000000 lam7 - 6.000000 lam8 - 11.000000 lam9 - 5.000000 lam10 - 6.000000 lam11 - 12.000000 lam12 - 4.000000 lam13 - 5.000000 lam14 - 12.000000 lam15 - 7.000000 lam16 - 8.000000 lam17 - 12.000000 lam18 - 3.000000 lam19 - 5.000000 lam20 - 9.000000 lam21 - 8.000000 lam22 - 12.000000 lam23 - 17.000000 lam24 - 6.000000 lam25 - 6.000000 lam26 - 13.000000 lam27 - 3.000000 lam28 - 4.000000 lam29 - 10.000000 lam30 - 3.000000 lam31 - 5.000000 lam32 - 12.000000 lam33 - 3.000000 lam34 - 5.000000 lam35 - 9.000000 lam36 - 7.000000 lam37 - 11.000000 lam38 - 13.000000 lam39 - 5.000000 lam40 - 5.000000 lam41 - 12.000000 lam42 - 5.000000 lam43 - 6.000000 lam44 - 27.000000 lam45 - 3.000000 lam46 - 6.000000 lam47 - 10.000000 lam48 - s1Minus = 0

   c2:    1.569859 theta - 1.694851 lam1 - 2.451767 lam2 - 1.869863 lam3 - 1.414862 lam4 - 1.265714 lam5 - 1.284303 lam6 - 1.965500 lam7 - 2.284286 lam8 - 1.745686 lam9 - 1.922915 lam10 - 2.226036 lam11 - 1.699095 lam12 - 1.864669 lam13 - 2.135178 lam14 - 1.767385 lam15 - 2.195802 lam16 - 2.441041 lam17 - 1.878146 lam18 - 1.760182 lam19 - 1.914087 lam20 - 1.688710 lam21 - 1.696361 lam22 - 2.456374 lam23 - 1.950806 lam24 - 1.961890 lam25 - 2.295496 lam26 - 1.760820 lam27 - 1.453351 lam28 - 1.287868 lam29 - 1.315102 lam30 - 1.851210 lam31 - 2.069139 lam32 - 1.790988 lam33 - 1.824914 lam34 - 2.018908 lam35 - 1.763891 lam36 - 1.832847 lam37 - 2.442299 lam38 - 1.867952 lam39 - 1.860153 lam40 - 2.135618 lam41 - 1.766750 lam42 - 1.922122 lam43 - 2.249041 lam44 - 1.666777 lam45 - 1.695042 lam46 - 1.569943 lam47 - 1.569859 lam48 - s2Minus = 0

   c3:    66.666702 lam1 + 66.666702 lam2 + 66.666702 lam3 + 66.666702 lam4 + 66.666702 lam5 + 64.666702 lam6 + 66.666702 lam7 + 66.666702 lam8 + 64.666702 lam9 + 66.666702 lam10 + 66.666702 lam11 + 64.666702 lam12 + 66.666702 lam13 + 66.666702 lam14 + 64.666702 lam15 + 66.666702 lam16 + 66.666702 lam17 + 65.333298 lam18 + 66.666702 lam19 + 66.666702 lam20 + 65.333298 lam21 + 66.666702 lam22 + 66.666702 lam23 + 66.666702 lam24 + 66.666702 lam25 + 66.666702 lam26 + 64.666702 lam27 + 66.666702 lam28 + 66.666702 lam29 + 64.666702 lam30 + 66.666702 lam31 + 66.666702 lam32 + 64.666702 lam33 + 66.666702 lam34 + 66.666702 lam35 + 65.333298 lam36 + 66.666702 lam37 + 66.666702 lam38 + 65.333298 lam39 + 66.666702 lam40 + 66.666702 lam41 + 64.666702 lam42 + 66.666702 lam43 + 66.666702 lam44 + 64.000000 lam45 + 66.666702 lam46 + 66.666702 lam47 + 64.666702 lam48 - s1Plus = 64.666702

   c4:    1.251835 lam1 + 1.158019 lam2 + 7.536614 lam3 + 2.479290 lam4 + 1.150122 lam5 + 2.480860 lam6 + 1.590523 lam7 + 1.135484 lam8 + 6.427866 lam9 + 1.701295 lam10 + 1.137787 lam11 + 6.014110 lam12 + 1.770238 lam13 + 1.141314 lam14 + 1.937872 lam15 + 1.304901 lam16 + 1.085500 lam17 + 2.568689 lam18 + 2.006862 lam19 + 1.108597 lam20 + 2.795048 lam21 + 1.249882 lam22 + 1.158013 lam23 + 6.927427 lam24 + 1.574233 lam25 + 1.133360 lam26 + 6.810700 lam27 + 2.390349 lam28 + 1.123838 lam29 + 2.952420 lam30 + 1.837126 lam31 + 1.143773 lam32 + 2.298318 lam33 + 1.858595 lam34 + 1.124950 lam35 + 2.437186 lam36 + 1.255517 lam37 + 1.092707 lam38 + 4.292534 lam39 + 1.770101 lam40 + 1.140824 lam41 + 2.847925 lam42 + 1.662908 lam43 + 1.194165 lam44 + 2.599475 lam45 + 2.186480 lam46 + 1.111231 lam47 + 3.488396 lam48 - s2Plus = 3.488396

Bounds
          lam1 >=  0
          lam2 >=  0
          lam3 >=  0
          lam4 >=  0
          lam5 >=  0
          lam6 >=  0
          lam7 >=  0
          lam8 >=  0
          lam9 >=  0
          lam10 >=  0
          lam11 >=  0
          lam12 >=  0
          lam13 >=  0
          lam14 >=  0
          lam15 >=  0
          lam16 >=  0
          lam17 >=  0
          lam18 >=  0
          lam19 >=  0
          lam20 >=  0
          lam21 >=  0
          lam22 >=  0
          lam23 >=  0
          lam24 >=  0
          lam25 >=  0
          lam26 >=  0
          lam27 >=  0
          lam28 >=  0
          lam29 >=  0
          lam30 >=  0
          lam31 >=  0
          lam32 >=  0
          lam33 >=  0
          lam34 >=  0
          lam35 >=  0
          lam36 >=  0
          lam37 >=  0
          lam38 >=  0
          lam39 >=  0
          lam40 >=  0
          lam41 >=  0
          lam42 >=  0
          lam43 >=  0
          lam44 >=  0
          lam45 >=  0
          lam46 >=  0
          lam47 >=  0
          lam48 >=  0
          s1Minus >=  0
          s2Minus >=  0
          s1Plus >=  0
          s2Plus >=  0
End